c read Graph
c width = 61
c time = 333 ms
c width = 4
c time = 442 ms
c width = 4
c time = 4201 ms
s td 68 5 72
b 1 1 2 19
b 2 2 3 19 20
b 3 16 17 35 36
b 4 3 19 20 37
b 5 16 35 36 54
b 6 37 38 56 57
b 7 53 54 70 71
b 8 3 4 5 22
b 9 5 6 7 24
b 10 7 8 9 26
b 11 9 10 11 28
b 12 11 12 13 30
b 13 13 14 15 32
b 14 3 20 21 37 38
b 15 3 21 37 38 57
b 16 3 21 38 39 57
b 17 3 21 22 39 57
b 18 3 5 22 39 57
b 19 5 22 39 40 57
b 20 5 22 23 40 57
b 21 5 23 40 57 58
b 22 5 23 40 41 58
b 23 5 23 24 41 58
b 24 5 7 24 41 58
b 25 7 24 41 58 59
b 26 7 24 41 42 59
b 27 7 24 25 42 59
b 28 7 25 42 59 60
b 29 7 25 42 43 60
b 30 7 25 26 43 60
b 31 7 9 26 43 60
b 32 9 26 43 60 61
b 33 9 26 43 44 61
b 34 9 26 27 44 61
b 35 9 27 44 61 62
b 36 9 27 44 45 62
b 37 9 27 28 45 62
b 38 9 11 28 45 62
b 39 11 28 45 62 63
b 40 11 28 45 46 63
b 41 11 28 29 46 63
b 42 11 29 46 63 64
b 43 11 29 46 47 64
b 44 11 29 30 47 64
b 45 11 13 30 47 64
b 46 13 30 47 64 65
b 47 13 30 47 48 65
b 48 13 30 31 48 65
b 49 13 31 48 65 66
b 50 13 31 48 49 66
b 51 13 31 32 49 66
b 52 13 15 32 49 66
b 53 15 32 49 66 67
b 54 15 32 49 50 67
b 55 15 32 33 50 67
b 56 15 33 50 67 68
b 57 15 33 50 51 68
b 58 15 33 51 68 69
b 59 15 16 33 51 69
b 60 16 33 34 51 69
b 61 16 34 51 52 69
b 62 16 34 35 52 69
b 63 16 35 52 54 69
b 64 35 52 53 54 69
b 65 52 53 54 69 70
b 66 54 71 72
b 67 37 55 56
b 68 17 18 36
1 2
2 4
3 68
3 5
4 14
5 63
6 67
6 15
7 66
7 65
8 18
9 24
10 31
11 38
12 45
13 52
14 15
15 16
16 17
17 18
18 19
19 20
20 21
21 22
22 23
23 24
24 25
25 26
26 27
27 28
28 29
29 30
30 31
31 32
32 33
33 34
34 35
35 36
36 37
37 38
38 39
39 40
40 41
41 42
42 43
43 44
44 45
45 46
46 47
47 48
48 49
49 50
50 51
51 52
52 53
53 54
54 55
55 56
56 57
57 58
58 59
59 60
60 61
61 62
62 63
63 64
64 65
